\Problem name: 

Minimize
obj: -786 x0 -529 x1 -432 x2 -730 x3 -865 x4 -760 x5 -683 x6 -238 x7 -236 x8 -495 x9
Subject To
cons0:  412 x0 + 414 x1 + 156 x2 + 375 x3 + 82 x4 + 921 x5 + 544 x6 + 594 x7 + 792 x8 + 323 x9
 <= 2306
cons1:  x0 <= 1
cons2:  x1 <= 1
cons3:  x2 <= 1
cons4:  x3 <= 1
cons5:  x4 <= 0
cons6:  x5 <= 1
cons7:  x6 <= 1
cons8:  x7 <= 0
cons9:  x8 <= 0
cons10:  x9 <= 0
Bounds
 0 <= x0 <= 1
 0 <= x1 <= 1
 0 <= x2 <= 1
 0 <= x3 <= 1
 0 <= x4 <= 1
 0 <= x5 <= 1
 0 <= x6 <= 1
 0 <= x7 <= 1
 0 <= x8 <= 1
 0 <= x9 <= 1
Integers
x0 x1 x2 x3 x4 x5 x6 x7 x8 x9 
End
